25
1 0 30
2 0 48
2 1 53
3 0 47
3 1 92
3 2 58
4 0 27
4 1 64
4 2 35
4 3 74
5 0 32
5 1 31
5 2 69
5 3 78
5 4 47
6 0 64
6 1 42
6 2 62
6 3 49
6 4 82
6 5 79
7 0 45
7 1 97
7 2 78
7 3 44
7 4 34
7 5 8
7 6 59
8 0 11
8 1 100
8 2 31
8 3 96
8 4 28
8 5 10
8 6 99
8 7 1
9 0 99
9 1 60
9 2 5
9 3 7
9 4 13
9 5 82
9 6 53
9 7 23
9 8 14
10 0 21
10 1 59
10 2 95
10 3 64
10 4 10
10 5 20
10 6 81
10 7 64
10 8 94
10 9 64
11 0 40
11 1 32
11 2 66
11 3 50
11 4 67
11 5 41
11 6 29
11 7 91
11 8 59
11 9 78
11 10 92
12 0 7
12 1 62
12 2 76
12 3 66
12 4 38
12 5 46
12 6 19
12 7 14
12 8 73
12 9 20
12 10 40
12 11 73
13 0 72
13 1 56
13 2 47
13 3 60
13 4 92
13 5 16
13 6 51
13 7 15
13 8 37
13 9 81
13 10 83
13 11 49
13 12 2
14 0 23
14 1 28
14 2 10
14 3 75
14 4 85
14 5 2
14 6 71
14 7 12
14 8 49
14 9 55
14 10 11
14 11 15
14 12 14
14 13 88
15 0 39
15 1 61
15 2 1
15 3 91
15 4 81
15 5 72
15 6 72
15 7 66
15 8 43
15 9 21
15 10 22
15 11 80
15 12 94
15 13 12
15 14 81
16 0 58
16 1 62
16 2 87
16 3 41
16 4 21
16 5 18
16 6 34
16 7 86
16 8 20
16 9 88
16 10 12
16 11 100
16 12 31
16 13 39
16 14 12
16 15 67
17 0 1
17 1 4
17 2 20
17 3 3
17 4 68
17 5 61
17 6 52
17 7 81
17 8 87
17 9 72
17 10 73
17 11 26
17 12 48
17 13 43
17 14 22
17 15 11
17 16 59
18 0 79
18 1 14
18 2 61
18 3 22
18 4 18
18 5 81
18 6 59
18 7 44
18 8 92
18 9 62
18 10 18
18 11 49
18 12 43
18 13 87
18 14 32
18 15 81
18 16 72
18 17 84
19 0 58
19 1 22
19 2 36
19 3 12
19 4 71
19 5 64
19 6 90
19 7 14
19 8 90
19 9 98
19 10 47
19 11 21
19 12 85
19 13 23
19 14 12
19 15 63
19 16 94
19 17 80
19 18 4
20 0 71
20 1 22
20 2 69
20 3 80
20 4 64
20 5 6
20 6 99
20 7 6
20 8 67
20 9 41
20 10 75
20 11 63
20 12 3
20 13 36
20 14 45
20 15 81
20 16 39
20 17 25
20 18 28
20 19 8
21 0 2
21 1 47
21 2 12
21 3 97
21 4 81
21 5 92
21 6 10
21 7 50
21 8 80
21 9 56
21 10 78
21 11 42
21 12 100
21 13 57
21 14 59
21 15 35
21 16 54
21 17 13
21 18 1
21 19 41
21 20 40
22 0 78
22 1 54
22 2 97
22 3 40
22 4 88
22 5 60
22 6 60
22 7 9
22 8 59
22 9 76
22 10 43
22 11 78
22 12 44
22 13 99
22 14 38
22 15 79
22 16 43
22 17 95
22 18 2
22 19 63
22 20 16
22 21 25
23 0 5
23 1 93
23 2 49
23 3 42
23 4 70
23 5 99
23 6 70
23 7 3
23 8 34
23 9 45
23 10 13
23 11 97
23 12 30
23 13 55
23 14 83
23 15 11
23 16 70
23 17 69
23 18 65
23 19 63
23 20 63
23 21 55
23 22 84
24 0 89
24 1 6
24 2 88
24 3 5
24 4 59
24 5 33
24 6 59
24 7 29
24 8 46
24 9 23
24 10 92
24 11 30
24 12 98
24 13 67
24 14 81
24 15 36
24 16 63
24 17 80
24 18 64
24 19 49
24 20 84
24 21 98
24 22 100
24 23 49
